c ind 455 454 453 452 451 450 449 448 447 446 445 444 443 442 441 440 439 438 437 436 435 434 433 432 431 430 429 428 427 426 425 424  0
c ind 96 95 94 93 92 91 90 89 88 87 86 85 84 83 82 81 80 79 78 77 76 75 74 73 72 71 70 69 68 67 66 65  0
c ind 644 643 642 641 640 639 638 637 636 635 634 633 632 631 630 629 628 627 626 625 624 623 622 621 620 619 618 617 616 615 614 613  0
c ind 707 706 705 704 703 702 701 700 699 698 697 696 695 694 693 692 691 690 689 688 687 686 685 684 683 682 681 680 679 678 677 676  0
c ind 581 580 579 578 577 576 575 574 573 572 571 570 569 568 567 566 565 564 563 562 561 560 559 558 557 556 555 554 553 552 551 550  0
c ind 33 32 31 30 29 28 27 26 25 24 23 22 21 20 19 18 17 16 15 14 13 12 11 10 9 8 7 6 5 4 3 2  0
c ind 518 517 516 515 514 513 512 511 510 509 508 507 506 505 504 503 502 501 500 499 498 497 496 495 494 493 492 491 490 489 488 487  0
c ind 159 158 157 156 155 154 153 152 151 150 149 148 147 146 145 144 143 142 141 140 139 138 137 136 135 134 133 132 131 130 129 128  0
p cnf 738 1350
1 0
-2 0
-3 0
-4 0
-5 0
-6 0
-7 0
-8 0
-9 0
-10 0
-11 0
-12 0
-13 0
-14 0
-15 0
-16 0
-17 0
-18 0
-19 0
-20 0
-21 0
-22 0
-23 0
-24 0
-25 0
-26 0
-27 0
-28 0
-29 0
-30 0
-31 0
-32 0
-33 0
34 0
35 0
36 0
37 0
38 0
39 0
40 0
41 0
42 0
43 0
44 0
45 0
46 0
47 0
48 0
49 0
50 0
51 0
52 0
53 0
54 0
55 0
56 0
57 0
58 0
59 0
60 0
61 0
62 0
63 0
64 0
-65 0
-66 0
-67 0
-68 0
-69 0
-70 0
-71 0
-72 0
-73 0
-74 0
-75 0
-76 0
-77 0
-78 0
-79 0
-80 0
-81 0
-82 0
-83 0
-84 0
-85 0
-86 0
-87 0
-88 0
-89 0
-90 0
-91 0
-92 0
-93 0
-94 0
-95 0
-96 0
97 0
98 0
99 0
100 0
101 0
102 0
103 0
104 0
105 0
106 0
107 0
108 0
109 0
110 0
111 0
112 0
113 0
114 0
115 0
116 0
117 0
118 0
119 0
120 0
121 0
122 0
123 0
124 0
125 0
126 0
127 0
-188 0
-423 0
-424 0
-425 0
-426 0
-427 0
-428 0
-429 0
-430 0
-431 0
-432 0
-433 0
-434 0
-435 0
-436 0
-437 0
-438 0
-439 0
-440 0
-441 0
-442 0
-443 0
-444 0
-445 0
-446 0
-447 0
-448 0
-449 0
-450 0
-451 0
-452 0
-453 0
-454 0
-455 0
456 0
457 0
458 0
459 0
460 0
461 0
462 0
463 0
464 0
465 0
466 0
467 0
468 0
469 0
470 0
471 0
472 0
473 0
474 0
475 0
476 0
477 0
478 0
479 0
480 0
481 0
482 0
483 0
484 0
485 0
486 0
-487 0
-488 0
-489 0
-490 0
-491 0
-492 0
-493 0
-494 0
-495 0
-496 0
-497 0
-498 0
-499 0
-500 0
-501 0
-502 0
-503 0
-504 0
-505 0
-506 0
-507 0
-508 0
-509 0
-510 0
-511 0
-512 0
-513 0
-514 0
-515 0
-516 0
-517 0
-518 0
519 0
520 0
521 0
522 0
523 0
524 0
525 0
526 0
527 0
528 0
529 0
530 0
531 0
532 0
533 0
534 0
535 0
536 0
537 0
538 0
539 0
540 0
541 0
542 0
543 0
544 0
545 0
546 0
547 0
548 0
549 0
-612 0
-675 0
-738 0
-128 187 0
-128 -247 246 0
-128 247 -246 0
128 -187 0
128 -247 -246 0
128 247 246 0
-129 -187 0
-129 -246 0
-129 -189 -186 0
-129 189 186 0
-129 245 248 0
129 -248 0
129 -186 187 0
129 -189 186 0
129 189 -186 0
129 -245 246 0
-130 -186 0
-130 -245 0
-130 -190 -185 0
-130 190 185 0
-130 244 250 0
130 -250 0
130 -185 186 0
130 -190 185 0
130 190 -185 0
130 -244 245 0
-131 -185 0
-131 -244 0
-131 -191 -184 0
-131 191 184 0
-131 243 252 0
131 -252 0
131 -184 185 0
131 -191 184 0
131 191 -184 0
131 -243 244 0
-132 -184 0
-132 -243 0
-132 -192 -183 0
-132 192 183 0
-132 242 254 0
132 -254 0
132 -183 184 0
132 -192 183 0
132 192 -183 0
132 -242 243 0
-133 -183 0
-133 -242 0
-133 -193 -182 0
-133 193 182 0
-133 241 256 0
133 -256 0
133 -182 183 0
133 -193 182 0
133 193 -182 0
133 -241 242 0
-134 -182 0
-134 -241 0
-134 -194 -181 0
-134 194 181 0
-134 240 258 0
134 -258 0
134 -181 182 0
134 -194 181 0
134 194 -181 0
134 -240 241 0
-135 -181 0
-135 -240 0
-135 -195 -180 0
-135 195 180 0
-135 239 260 0
135 -260 0
135 -180 181 0
135 -195 180 0
135 195 -180 0
135 -239 240 0
-136 -180 0
-136 -239 0
-136 -196 -179 0
-136 196 179 0
-136 238 262 0
136 -262 0
136 -179 180 0
136 -196 179 0
136 196 -179 0
136 -238 239 0
-137 -179 0
-137 -238 0
-137 -197 -178 0
-137 197 178 0
-137 237 264 0
137 -264 0
137 -178 179 0
137 -197 178 0
137 197 -178 0
137 -237 238 0
-138 -178 0
-138 -237 0
-138 -198 -177 0
-138 198 177 0
-138 236 266 0
138 -266 0
138 -177 178 0
138 -198 177 0
138 198 -177 0
138 -236 237 0
-139 -177 0
-139 -236 0
-139 -199 -176 0
-139 199 176 0
-139 235 268 0
139 -268 0
139 -176 177 0
139 -199 176 0
139 199 -176 0
139 -235 236 0
-140 -176 0
-140 -235 0
-140 -200 -175 0
-140 200 175 0
-140 234 270 0
140 -270 0
140 -175 176 0
140 -200 175 0
140 200 -175 0
140 -234 235 0
-141 -175 0
-141 -234 0
-141 -201 -174 0
-141 201 174 0
-141 233 272 0
141 -272 0
141 -174 175 0
141 -201 174 0
141 201 -174 0
141 -233 234 0
-142 -174 0
-142 -233 0
-142 -202 -173 0
-142 202 173 0
-142 232 274 0
142 -274 0
142 -173 174 0
142 -202 173 0
142 202 -173 0
142 -232 233 0
-143 -173 0
-143 -232 0
-143 -203 -172 0
-143 203 172 0
-143 231 276 0
143 -276 0
143 -172 173 0
143 -203 172 0
143 203 -172 0
143 -231 232 0
-144 -172 0
-144 -231 0
-144 -204 -171 0
-144 204 171 0
-144 230 278 0
144 -278 0
144 -171 172 0
144 -204 171 0
144 204 -171 0
144 -230 231 0
-145 -171 0
-145 -230 0
-145 -205 -170 0
-145 205 170 0
-145 229 280 0
145 -280 0
145 -170 171 0
145 -205 170 0
145 205 -170 0
145 -229 230 0
-146 -170 0
-146 -229 0
-146 -206 -169 0
-146 206 169 0
-146 228 282 0
146 -282 0
146 -169 170 0
146 -206 169 0
146 206 -169 0
146 -228 229 0
-147 -169 0
-147 -228 0
-147 -207 -168 0
-147 207 168 0
-147 227 284 0
147 -284 0
147 -168 169 0
147 -207 168 0
147 207 -168 0
147 -227 228 0
-148 -168 0
-148 -227 0
-148 -208 -167 0
-148 208 167 0
-148 226 286 0
148 -286 0
148 -167 168 0
148 -208 167 0
148 208 -167 0
148 -226 227 0
-149 -167 0
-149 -226 0
-149 -209 -166 0
-149 209 166 0
-149 225 288 0
149 -288 0
149 -166 167 0
149 -209 166 0
149 209 -166 0
149 -225 226 0
-150 -166 0
-150 -225 0
-150 -210 -165 0
-150 210 165 0
-150 224 290 0
150 -290 0
150 -165 166 0
150 -210 165 0
150 210 -165 0
150 -224 225 0
-151 -165 0
-151 -224 0
-151 -211 -164 0
-151 211 164 0
-151 223 292 0
151 -292 0
151 -164 165 0
151 -211 164 0
151 211 -164 0
151 -223 224 0
-152 -164 0
-152 -223 0
-152 -212 -163 0
-152 212 163 0
-152 222 294 0
152 -294 0
152 -163 164 0
152 -212 163 0
152 212 -163 0
152 -222 223 0
-153 -163 0
-153 -222 0
-153 -213 -162 0
-153 213 162 0
-153 221 296 0
153 -296 0
153 -162 163 0
153 -213 162 0
153 213 -162 0
153 -221 222 0
-154 -162 0
-154 -221 0
-154 -214 -161 0
-154 214 161 0
-154 220 298 0
154 -298 0
154 -161 162 0
154 -214 161 0
154 214 -161 0
154 -220 221 0
-155 -161 0
-155 -220 0
-155 -215 -160 0
-155 215 160 0
-155 219 300 0
155 -300 0
155 -160 161 0
155 -215 160 0
155 215 -160 0
155 -219 220 0
-156 -160 0
-156 -219 0
-156 -216 157 0
-156 216 -157 0
-156 218 302 0
156 -302 0
156 157 160 0
156 -216 -157 0
156 216 157 0
156 -218 219 0
-157 -160 0
-157 -218 0
-157 217 304 0
157 -304 0
157 -217 218 0
-158 -217 0
-158 -159 306 0
158 -306 0
158 159 217 0
-159 -217 0
-159 -422 0
159 -306 0
159 -421 422 0
160 -161 0
161 -162 0
162 -163 0
163 -164 0
164 -165 0
165 -166 0
166 -167 0
167 -168 0
168 -169 0
169 -170 0
170 -171 0
171 -172 0
172 -173 0
173 -174 0
174 -175 0
175 -176 0
176 -177 0
177 -178 0
178 -179 0
179 -180 0
180 -181 0
181 -182 0
182 -183 0
183 -184 0
184 -185 0
185 -186 0
186 -187 0
-217 -304 0
-217 -307 0
217 -218 0
217 306 307 0
-218 -302 0
-218 -305 0
218 -219 0
218 304 305 0
-219 -300 0
-219 -303 0
219 -220 0
219 302 303 0
-220 -298 0
-220 -301 0
220 -221 0
220 300 301 0
-221 -296 0
-221 -299 0
221 -222 0
221 298 299 0
-222 -294 0
-222 -297 0
222 -223 0
222 296 297 0
-223 -292 0
-223 -295 0
223 -224 0
223 294 295 0
-224 -290 0
-224 -293 0
224 -225 0
224 292 293 0
-225 -288 0
-225 -291 0
225 -226 0
225 290 291 0
-226 -286 0
-226 -289 0
226 -227 0
226 288 289 0
-227 -284 0
-227 -287 0
227 -228 0
227 286 287 0
-228 -282 0
-228 -285 0
228 -229 0
228 284 285 0
-229 -280 0
-229 -283 0
229 -230 0
229 282 283 0
-230 -278 0
-230 -281 0
230 -231 0
230 280 281 0
-231 -276 0
-231 -279 0
231 -232 0
231 278 279 0
-232 -274 0
-232 -277 0
232 -233 0
232 276 277 0
-233 -272 0
-233 -275 0
233 -234 0
233 274 275 0
-234 -270 0
-234 -273 0
234 -235 0
234 272 273 0
-235 -268 0
-235 -271 0
235 -236 0
235 270 271 0
-236 -266 0
-236 -269 0
236 -237 0
236 268 269 0
-237 -264 0
-237 -267 0
237 -238 0
237 266 267 0
-238 -262 0
-238 -265 0
238 -239 0
238 264 265 0
-239 -260 0
-239 -263 0
239 -240 0
239 262 263 0
-240 -258 0
-240 -261 0
240 -241 0
240 260 261 0
-241 -256 0
-241 -259 0
241 -242 0
241 258 259 0
-242 -254 0
-242 -257 0
242 -243 0
242 256 257 0
-243 -252 0
-243 -255 0
243 -244 0
243 254 255 0
-244 -250 0
-244 -253 0
244 -245 0
244 252 253 0
-245 -248 0
-245 -251 0
245 -246 0
245 250 251 0
-246 -249 0
246 248 249 0
-247 -336 -335 0
-247 336 335 0
247 -336 335 0
247 336 -335 0
-248 -249 0
-249 -337 0
-249 -334 335 0
249 -335 0
249 334 337 0
-250 -251 0
-251 -339 0
-251 -333 334 0
251 -334 0
251 333 339 0
-252 -253 0
-253 -341 0
-253 -332 333 0
253 -333 0
253 332 341 0
-254 -255 0
-255 -343 0
-255 -331 332 0
255 -332 0
255 331 343 0
-256 -257 0
-257 -345 0
-257 -330 331 0
257 -331 0
257 330 345 0
-258 -259 0
-259 -347 0
-259 -329 330 0
259 -330 0
259 329 347 0
-260 -261 0
-261 -349 0
-261 -328 329 0
261 -329 0
261 328 349 0
-262 -263 0
-263 -351 0
-263 -327 328 0
263 -328 0
263 327 351 0
-264 -265 0
-265 -353 0
-265 -326 327 0
265 -327 0
265 326 353 0
-266 -267 0
-267 -355 0
-267 -325 326 0
267 -326 0
267 325 355 0
-268 -269 0
-269 -357 0
-269 -324 325 0
269 -325 0
269 324 357 0
-270 -271 0
-271 -359 0
-271 -323 324 0
271 -324 0
271 323 359 0
-272 -273 0
-273 -361 0
-273 -322 323 0
273 -323 0
273 322 361 0
-274 -275 0
-275 -363 0
-275 -321 322 0
275 -322 0
275 321 363 0
-276 -277 0
-277 -365 0
-277 -320 321 0
277 -321 0
277 320 365 0
-278 -279 0
-279 -367 0
-279 -319 320 0
279 -320 0
279 319 367 0
-280 -281 0
-281 -369 0
-281 -318 319 0
281 -319 0
281 318 369 0
-282 -283 0
-283 -371 0
-283 -317 318 0
283 -318 0
283 317 371 0
-284 -285 0
-285 -373 0
-285 -316 317 0
285 -317 0
285 316 373 0
-286 -287 0
-287 -375 0
-287 -315 316 0
287 -316 0
287 315 375 0
-288 -289 0
-289 -377 0
-289 -314 315 0
289 -315 0
289 314 377 0
-290 -291 0
-291 -379 0
-291 -313 314 0
291 -314 0
291 313 379 0
-292 -293 0
-293 -381 0
-293 -312 313 0
293 -313 0
293 312 381 0
-294 -295 0
-295 -383 0
-295 -311 312 0
295 -312 0
295 311 383 0
-296 -297 0
-297 -385 0
-297 -310 311 0
297 -311 0
297 310 385 0
-298 -299 0
-299 -387 0
-299 -309 310 0
299 -310 0
299 309 387 0
-300 -301 0
-301 -389 0
-301 -308 309 0
301 -309 0
301 308 389 0
-302 -303 0
-303 -391 0
-303 -305 308 0
303 -308 0
303 305 391 0
-304 -305 0
-305 -391 0
-305 -419 420 0
305 -308 0
305 -420 0
-306 -307 0
-307 -421 0
307 -420 421 0
-308 -389 0
-308 -392 0
308 -309 0
308 391 392 0
-309 -387 0
-309 -390 0
309 -310 0
309 389 390 0
-310 -385 0
-310 -388 0
310 -311 0
310 387 388 0
-311 -383 0
-311 -386 0
311 -312 0
311 385 386 0
-312 -381 0
-312 -384 0
312 -313 0
312 383 384 0
-313 -379 0
-313 -382 0
313 -314 0
313 381 382 0
-314 -377 0
-314 -380 0
314 -315 0
314 379 380 0
-315 -375 0
-315 -378 0
315 -316 0
315 377 378 0
-316 -373 0
-316 -376 0
316 -317 0
316 375 376 0
-317 -371 0
-317 -374 0
317 -318 0
317 373 374 0
-318 -369 0
-318 -372 0
318 -319 0
318 371 372 0
-319 -367 0
-319 -370 0
319 -320 0
319 369 370 0
-320 -365 0
-320 -368 0
320 -321 0
320 367 368 0
-321 -363 0
-321 -366 0
321 -322 0
321 365 366 0
-322 -361 0
-322 -364 0
322 -323 0
322 363 364 0
-323 -359 0
-323 -362 0
323 -324 0
323 361 362 0
-324 -357 0
-324 -360 0
324 -325 0
324 359 360 0
-325 -355 0
-325 -358 0
325 -326 0
325 357 358 0
-326 -353 0
-326 -356 0
326 -327 0
326 355 356 0
-327 -351 0
-327 -354 0
327 -328 0
327 353 354 0
-328 -349 0
-328 -352 0
328 -329 0
328 351 352 0
-329 -347 0
-329 -350 0
329 -330 0
329 349 350 0
-330 -345 0
-330 -348 0
330 -331 0
330 347 348 0
-331 -343 0
-331 -346 0
331 -332 0
331 345 346 0
-332 -341 0
-332 -344 0
332 -333 0
332 343 344 0
-333 -339 0
-333 -342 0
333 -334 0
333 341 342 0
-334 -337 0
-334 -340 0
334 -335 0
334 339 340 0
-335 -338 0
335 337 338 0
336 422 0
-337 -338 0
-338 -393 0
338 340 393 0
-339 -340 0
-340 -393 0
-341 -342 0
-342 -394 0
342 -393 394 0
-343 -344 0
-344 -395 0
344 -394 395 0
-345 -346 0
-346 -396 0
346 -395 396 0
-347 -348 0
-348 -397 0
348 -396 397 0
-349 -350 0
-350 -398 0
350 -397 398 0
-351 -352 0
-352 -399 0
352 -398 399 0
-353 -354 0
-354 -400 0
354 -399 400 0
-355 -356 0
-356 -401 0
356 -400 401 0
-357 -358 0
-358 -402 0
358 -401 402 0
-359 -360 0
-360 -403 0
360 -402 403 0
-361 -362 0
-362 -404 0
362 -403 404 0
-363 -364 0
-364 -405 0
364 -404 405 0
-365 -366 0
-366 -406 0
366 -405 406 0
-367 -368 0
-368 -407 0
368 -406 407 0
-369 -370 0
-370 -408 0
370 -407 408 0
-371 -372 0
-372 -409 0
372 -408 409 0
-373 -374 0
-374 -410 0
374 -409 410 0
-375 -376 0
-376 -411 0
376 -410 411 0
-377 -378 0
-378 -412 0
378 -411 412 0
-379 -380 0
-380 -413 0
380 -412 413 0
-381 -382 0
-382 -414 0
382 -413 414 0
-383 -384 0
-384 -415 0
384 -414 415 0
-385 -386 0
-386 -416 0
386 -415 416 0
-387 -388 0
-388 -417 0
388 -416 417 0
-389 -390 0
-390 -418 0
390 -417 418 0
-391 -392 0
-392 -419 0
392 -418 419 0
393 -394 0
394 -395 0
395 -396 0
396 -397 0
397 -398 0
398 -399 0
399 -400 0
400 -401 0
401 -402 0
402 -403 0
403 -404 0
404 -405 0
405 -406 0
406 -407 0
407 -408 0
408 -409 0
409 -410 0
410 -411 0
411 -412 0
412 -413 0
413 -414 0
414 -415 0
415 -416 0
416 -417 0
417 -418 0
418 -419 0
419 -420 0
420 -421 0
421 -422 0
-550 -582 0
550 551 582 0
-551 -582 0
-552 -583 0
552 -582 583 0
-553 -584 0
553 -583 584 0
-554 -585 0
554 -584 585 0
-555 -586 0
555 -585 586 0
-556 -587 0
556 -586 587 0
-557 -588 0
557 -587 588 0
-558 -589 0
558 -588 589 0
-559 -590 0
559 -589 590 0
-560 -591 0
560 -590 591 0
-561 -592 0
561 -591 592 0
-562 -593 0
562 -592 593 0
-563 -594 0
563 -593 594 0
-564 -595 0
564 -594 595 0
-565 -596 0
565 -595 596 0
-566 -597 0
566 -596 597 0
-567 -598 0
567 -597 598 0
-568 -599 0
568 -598 599 0
-569 -600 0
569 -599 600 0
-570 -601 0
570 -600 601 0
-571 -602 0
571 -601 602 0
-572 -603 0
572 -602 603 0
-573 -604 0
573 -603 604 0
-574 -605 0
574 -604 605 0
-575 -606 0
575 -605 606 0
-576 -607 0
576 -606 607 0
-577 -608 0
577 -607 608 0
-578 -609 0
578 -608 609 0
-579 -610 0
579 -609 610 0
-580 -611 0
580 -610 611 0
581 -611 0
582 -583 0
583 -584 0
584 -585 0
585 -586 0
586 -587 0
587 -588 0
588 -589 0
589 -590 0
590 -591 0
591 -592 0
592 -593 0
593 -594 0
594 -595 0
595 -596 0
596 -597 0
597 -598 0
598 -599 0
599 -600 0
600 -601 0
601 -602 0
602 -603 0
603 -604 0
604 -605 0
605 -606 0
606 -607 0
607 -608 0
608 -609 0
609 -610 0
610 -611 0
-613 -645 0
613 614 645 0
-614 -645 0
-615 -646 0
615 -645 646 0
-616 -647 0
616 -646 647 0
-617 -648 0
617 -647 648 0
-618 -649 0
618 -648 649 0
-619 -650 0
619 -649 650 0
-620 -651 0
620 -650 651 0
-621 -652 0
621 -651 652 0
-622 -653 0
622 -652 653 0
-623 -654 0
623 -653 654 0
-624 -655 0
624 -654 655 0
-625 -656 0
625 -655 656 0
-626 -657 0
626 -656 657 0
-627 -658 0
627 -657 658 0
-628 -659 0
628 -658 659 0
-629 -660 0
629 -659 660 0
-630 -661 0
630 -660 661 0
-631 -662 0
631 -661 662 0
-632 -663 0
632 -662 663 0
-633 -664 0
633 -663 664 0
-634 -665 0
634 -664 665 0
-635 -666 0
635 -665 666 0
-636 -667 0
636 -666 667 0
-637 -668 0
637 -667 668 0
-638 -669 0
638 -668 669 0
-639 -670 0
639 -669 670 0
-640 -671 0
640 -670 671 0
-641 -672 0
641 -671 672 0
-642 -673 0
642 -672 673 0
-643 -674 0
643 -673 674 0
644 -674 0
645 -646 0
646 -647 0
647 -648 0
648 -649 0
649 -650 0
650 -651 0
651 -652 0
652 -653 0
653 -654 0
654 -655 0
655 -656 0
656 -657 0
657 -658 0
658 -659 0
659 -660 0
660 -661 0
661 -662 0
662 -663 0
663 -664 0
664 -665 0
665 -666 0
666 -667 0
667 -668 0
668 -669 0
669 -670 0
670 -671 0
671 -672 0
672 -673 0
673 -674 0
-676 -708 0
676 677 708 0
-677 -708 0
-678 -709 0
678 -708 709 0
-679 -710 0
679 -709 710 0
-680 -711 0
680 -710 711 0
-681 -712 0
681 -711 712 0
-682 -713 0
682 -712 713 0
-683 -714 0
683 -713 714 0
-684 -715 0
684 -714 715 0
-685 -716 0
685 -715 716 0
-686 -717 0
686 -716 717 0
-687 -718 0
687 -717 718 0
-688 -719 0
688 -718 719 0
-689 -720 0
689 -719 720 0
-690 -721 0
690 -720 721 0
-691 -722 0
691 -721 722 0
-692 -723 0
692 -722 723 0
-693 -724 0
693 -723 724 0
-694 -725 0
694 -724 725 0
-695 -726 0
695 -725 726 0
-696 -727 0
696 -726 727 0
-697 -728 0
697 -727 728 0
-698 -729 0
698 -728 729 0
-699 -730 0
699 -729 730 0
-700 -731 0
700 -730 731 0
-701 -732 0
701 -731 732 0
-702 -733 0
702 -732 733 0
-703 -734 0
703 -733 734 0
-704 -735 0
704 -734 735 0
-705 -736 0
705 -735 736 0
-706 -737 0
706 -736 737 0
707 -737 0
708 -709 0
709 -710 0
710 -711 0
711 -712 0
712 -713 0
713 -714 0
714 -715 0
715 -716 0
716 -717 0
717 -718 0
718 -719 0
719 -720 0
720 -721 0
721 -722 0
722 -723 0
723 -724 0
724 -725 0
725 -726 0
726 -727 0
727 -728 0
728 -729 0
729 -730 0
730 -731 0
731 -732 0
732 -733 0
733 -734 0
734 -735 0
735 -736 0
736 -737 0
